\ Model ChooChoo
\ LP format - for model browsing. Use MPS format to capture full model detail.
\ Signature: 0xff7072bd42eccdf2
Minimize
  15 Arc(1,10) + 20 Arc(1,11) + 3 Arc(1,12) + 23 Arc(2,4) + 11 Arc(2,5)
   + 6 Arc(2,6) + 20 Arc(3,10) + 25 Arc(3,11) + 8 Arc(3,12) + 25 Arc(4,10)
   + 6 Arc(4,11) + 13 Arc(4,12) + 21 Arc(5,1) + 10 Arc(5,2) + 13 Arc(5,3)
   + 17 Arc(6,7) + 4 Arc(6,8) + 7 Arc(6,9) + 6 Arc(7,1) + 19 Arc(7,2)
   + 22 Arc(7,3) + 15 Arc(8,13) + 14 Arc(8,14) + 25 Arc(8,15)
   + 10 Arc(9,13) + 9 Arc(9,14) + 20 Arc(9,15) + 18 Arc(10,4) + 6 Arc(10,5)
   + 25 Arc(10,6) + 19 Arc(11,13) + 18 Arc(11,14) + 5 Arc(11,15)
   + 9 Arc(12,7) + 20 Arc(12,8) + 23 Arc(12,9) + 18 Arc(13,4) + 6 Arc(13,5)
   + 25 Arc(13,6) + 4 Arc(14,1) + 17 Arc(14,2) + 20 Arc(14,3) + 7 Arc(15,7)
   + 18 Arc(15,8) + 21 Arc(15,9) + 0 y(1,12) + 0 y(5,1) + 0 y(5,2)
   + 0 y(5,3) + 0 y(6,8) + 0 y(7,1) + 0 y(7,2) + 0 y(7,3) + 0 y(8,13)
   + 0 y(8,14) + 0 y(8,15) + 0 y(9,13) + 0 y(9,14) + 0 y(9,15) + 0 y(11,13)
   + 0 y(11,14) + 0 y(11,15) + 0 y(14,1) + 0 y(14,2) + 0 y(14,3)
Subject To
 c1l(1): Arc(1,10) + Arc(1,11) + Arc(1,12) <= 1
 c1l(2): Arc(2,4) + Arc(2,5) + Arc(2,6) <= 1
 c1l(3): Arc(3,10) + Arc(3,11) + Arc(3,12) <= 1
 c1l(4): Arc(4,10) + Arc(4,11) + Arc(4,12) <= 1
 c1l(5): Arc(5,1) + Arc(5,2) + Arc(5,3) <= 1
 c1l(6): Arc(6,7) + Arc(6,8) + Arc(6,9) <= 1
 c1l(7): Arc(7,1) + Arc(7,2) + Arc(7,3) <= 1
 c1l(8): Arc(8,13) + Arc(8,14) + Arc(8,15) <= 1
 c1l(9): Arc(9,13) + Arc(9,14) + Arc(9,15) <= 1
 c1l(10): Arc(10,4) + Arc(10,5) + Arc(10,6) <= 1
 c1l(11): Arc(11,13) + Arc(11,14) + Arc(11,15) <= 1
 c1l(12): Arc(12,7) + Arc(12,8) + Arc(12,9) <= 1
 c1l(13): Arc(13,4) + Arc(13,5) + Arc(13,6) <= 1
 c1l(14): Arc(14,1) + Arc(14,2) + Arc(14,3) <= 1
 c1l(15): Arc(15,7) + Arc(15,8) + Arc(15,9) <= 1
 c1u(1): Arc(1,10) + Arc(1,11) + Arc(1,12) >= 1
 c1u(2): Arc(2,4) + Arc(2,5) + Arc(2,6) >= 1
 c1u(3): Arc(3,10) + Arc(3,11) + Arc(3,12) >= 1
 c1u(4): Arc(4,10) + Arc(4,11) + Arc(4,12) >= 1
 c1u(5): Arc(5,1) + Arc(5,2) + Arc(5,3) >= 1
 c1u(6): Arc(6,7) + Arc(6,8) + Arc(6,9) >= 1
 c1u(7): Arc(7,1) + Arc(7,2) + Arc(7,3) >= 1
 c1u(8): Arc(8,13) + Arc(8,14) + Arc(8,15) >= 1
 c1u(9): Arc(9,13) + Arc(9,14) + Arc(9,15) >= 1
 c1u(10): Arc(10,4) + Arc(10,5) + Arc(10,6) >= 1
 c1u(11): Arc(11,13) + Arc(11,14) + Arc(11,15) >= 1
 c1u(12): Arc(12,7) + Arc(12,8) + Arc(12,9) >= 1
 c1u(13): Arc(13,4) + Arc(13,5) + Arc(13,6) >= 1
 c1u(14): Arc(14,1) + Arc(14,2) + Arc(14,3) >= 1
 c1u(15): Arc(15,7) + Arc(15,8) + Arc(15,9) >= 1
 c2(1): Arc(1,10) + Arc(1,11) + Arc(1,12) - Arc(5,1) - Arc(7,1) - Arc(14,1)
   = 0
 c2(2): Arc(2,4) + Arc(2,5) + Arc(2,6) - Arc(5,2) - Arc(7,2) - Arc(14,2)
   = 0
 c2(3): Arc(3,10) + Arc(3,11) + Arc(3,12) - Arc(5,3) - Arc(7,3) - Arc(14,3)
   = 0
 c2(4): - Arc(2,4) + Arc(4,10) + Arc(4,11) + Arc(4,12) - Arc(10,4)
   - Arc(13,4) = 0
 c2(5): - Arc(2,5) + Arc(5,1) + Arc(5,2) + Arc(5,3) - Arc(10,5) - Arc(13,5)
   = 0
 c2(6): - Arc(2,6) + Arc(6,7) + Arc(6,8) + Arc(6,9) - Arc(10,6) - Arc(13,6)
   = 0
 c2(7): - Arc(6,7) + Arc(7,1) + Arc(7,2) + Arc(7,3) - Arc(12,7) - Arc(15,7)
   = 0
 c2(8): - Arc(6,8) + Arc(8,13) + Arc(8,14) + Arc(8,15) - Arc(12,8)
   - Arc(15,8) = 0
 c2(9): - Arc(6,9) + Arc(9,13) + Arc(9,14) + Arc(9,15) - Arc(12,9)
   - Arc(15,9) = 0
 c2(10): - Arc(1,10) - Arc(3,10) - Arc(4,10) + Arc(10,4) + Arc(10,5)
   + Arc(10,6) = 0
 c2(11): - Arc(1,11) - Arc(3,11) - Arc(4,11) + Arc(11,13) + Arc(11,14)
   + Arc(11,15) = 0
 c2(12): - Arc(1,12) - Arc(3,12) - Arc(4,12) + Arc(12,7) + Arc(12,8)
   + Arc(12,9) = 0
 c2(13): - Arc(8,13) - Arc(9,13) - Arc(11,13) + Arc(13,4) + Arc(13,5)
   + Arc(13,6) = 0
 c2(14): - Arc(8,14) - Arc(9,14) - Arc(11,14) + Arc(14,1) + Arc(14,2)
   + Arc(14,3) = 0
 c2(15): - Arc(8,15) - Arc(9,15) - Arc(11,15) + Arc(15,7) + Arc(15,8)
   + Arc(15,9) = 0
 c3(1): a(1) <= 48
 c3(2): a(2) <= 48
 c3(3): a(3) <= 48
 c3(4): a(4) <= 48
 c3(5): a(5) <= 48
 c3(6): a(6) <= 48
 c3(7): a(7) <= 48
 c3(8): a(8) <= 48
 c3(9): a(9) <= 48
 c3(10): a(10) <= 48
 c3(11): a(11) <= 48
 c3(12): a(12) <= 48
 c3(13): a(13) <= 48
 c3(14): a(14) <= 48
 c3(15): a(15) <= 48
 c4(1): 500 y(1,10) + a(10) <= 504
 c4(2): 500 y(1,11) + a(11) <= 503
 c4(4): 500 y(2,4) + a(4) <= 501
 c4(5): 500 y(2,5) + a(5) <= 501
 c4(6): 500 y(2,6) + a(6) <= 501
 c4(7): 500 y(3,10) + a(10) <= 504
 c4(8): 500 y(3,11) + a(11) <= 503
 c4(9): 500 y(3,12) + a(12) <= 502
 c4(10): 500 y(4,10) + a(10) <= 504
 c4(11): 500 y(4,11) + a(11) <= 503
 c4(12): 500 y(4,12) + a(12) <= 502
 c4(16): 500 y(6,7) + a(7) <= 503
 c4(18): 500 y(6,9) + a(9) <= 504
 c4(28): 500 y(10,4) + a(4) <= 501
 c4(29): 500 y(10,5) + a(5) <= 501
 c4(30): 500 y(10,6) + a(6) <= 501
 c4(34): 500 y(12,7) + a(7) <= 503
 c4(35): 500 y(12,8) + a(8) <= 502
 c4(36): 500 y(12,9) + a(9) <= 504
 c4(37): 500 y(13,4) + a(4) <= 501
 c4(38): 500 y(13,5) + a(5) <= 501
 c4(39): 500 y(13,6) + a(6) <= 501
 c4(43): 500 y(15,7) + a(7) <= 503
 c4(44): 500 y(15,8) + a(8) <= 502
 c4(45): 500 y(15,9) + a(9) <= 504
 c5(1): - 500 y(1,10) + a(10) >= -496
 c5(2): - 500 y(1,11) + a(11) >= -497
 c5(4): - 500 y(2,4) + a(4) >= -499
 c5(5): - 500 y(2,5) + a(5) >= -499
 c5(6): - 500 y(2,6) + a(6) >= -499
 c5(7): - 500 y(3,10) + a(10) >= -496
 c5(8): - 500 y(3,11) + a(11) >= -497
 c5(9): - 500 y(3,12) + a(12) >= -498
 c5(10): - 500 y(4,10) + a(10) >= -496
 c5(11): - 500 y(4,11) + a(11) >= -497
 c5(12): - 500 y(4,12) + a(12) >= -498
 c5(16): - 500 y(6,7) + a(7) >= -497
 c5(18): - 500 y(6,9) + a(9) >= -496
 c5(28): - 500 y(10,4) + a(4) >= -499
 c5(29): - 500 y(10,5) + a(5) >= -499
 c5(30): - 500 y(10,6) + a(6) >= -499
 c5(34): - 500 y(12,7) + a(7) >= -497
 c5(35): - 500 y(12,8) + a(8) >= -498
 c5(36): - 500 y(12,9) + a(9) >= -496
 c5(37): - 500 y(13,4) + a(4) >= -499
 c5(38): - 500 y(13,5) + a(5) >= -499
 c5(39): - 500 y(13,6) + a(6) >= -499
 c5(43): - 500 y(15,7) + a(7) >= -497
 c5(44): - 500 y(15,8) + a(8) >= -498
 c5(45): - 500 y(15,9) + a(9) >= -496
 c6(1): 500 Arc(1,10) - 500 y(1,10) - a(1) + a(10) <= 519
 c6(2): 500 Arc(1,11) - 500 y(1,11) - a(1) + a(11) <= 523
 c6(4): 500 Arc(2,4) - 500 y(2,4) - a(2) + a(4) <= 524
 c6(5): 500 Arc(2,5) - 500 y(2,5) - a(2) + a(5) <= 512
 c6(6): 500 Arc(2,6) - 500 y(2,6) - a(2) + a(6) <= 507
 c6(7): 500 Arc(3,10) - 500 y(3,10) - a(3) + a(10) <= 524
 c6(8): 500 Arc(3,11) - 500 y(3,11) - a(3) + a(11) <= 528
 c6(9): 500 Arc(3,12) - 500 y(3,12) - a(3) + a(12) <= 510
 c6(10): 500 Arc(4,10) - 500 y(4,10) - a(4) + a(10) <= 529
 c6(11): 500 Arc(4,11) - 500 y(4,11) - a(4) + a(11) <= 509
 c6(12): 500 Arc(4,12) - 500 y(4,12) - a(4) + a(12) <= 515
 c6(16): 500 Arc(6,7) - 500 y(6,7) - a(6) + a(7) <= 520
 c6(18): 500 Arc(6,9) - 500 y(6,9) - a(6) + a(9) <= 511
 c6(28): 500 Arc(10,4) - 500 y(10,4) + a(4) - a(10) <= 519
 c6(29): 500 Arc(10,5) - 500 y(10,5) + a(5) - a(10) <= 507
 c6(30): 500 Arc(10,6) - 500 y(10,6) + a(6) - a(10) <= 526
 c6(34): 500 Arc(12,7) - 500 y(12,7) + a(7) - a(12) <= 512
 c6(35): 500 Arc(12,8) - 500 y(12,8) + a(8) - a(12) <= 522
 c6(36): 500 Arc(12,9) - 500 y(12,9) + a(9) - a(12) <= 527
 c6(37): 500 Arc(13,4) - 500 y(13,4) + a(4) - a(13) <= 519
 c6(38): 500 Arc(13,5) - 500 y(13,5) + a(5) - a(13) <= 507
 c6(39): 500 Arc(13,6) - 500 y(13,6) + a(6) - a(13) <= 526
 c6(43): 500 Arc(15,7) - 500 y(15,7) + a(7) - a(15) <= 510
 c6(44): 500 Arc(15,8) - 500 y(15,8) + a(8) - a(15) <= 520
 c6(45): 500 Arc(15,9) - 500 y(15,9) + a(9) - a(15) <= 525
 c7(1): - 500 Arc(1,10) + 500 y(1,10) - a(1) + a(10) >= -481
 c7(2): - 500 Arc(1,11) + 500 y(1,11) - a(1) + a(11) >= -477
 c7(4): - 500 Arc(2,4) + 500 y(2,4) - a(2) + a(4) >= -476
 c7(5): - 500 Arc(2,5) + 500 y(2,5) - a(2) + a(5) >= -488
 c7(6): - 500 Arc(2,6) + 500 y(2,6) - a(2) + a(6) >= -493
 c7(7): - 500 Arc(3,10) + 500 y(3,10) - a(3) + a(10) >= -476
 c7(8): - 500 Arc(3,11) + 500 y(3,11) - a(3) + a(11) >= -472
 c7(9): - 500 Arc(3,12) + 500 y(3,12) - a(3) + a(12) >= -490
 c7(10): - 500 Arc(4,10) + 500 y(4,10) - a(4) + a(10) >= -471
 c7(11): - 500 Arc(4,11) + 500 y(4,11) - a(4) + a(11) >= -491
 c7(12): - 500 Arc(4,12) + 500 y(4,12) - a(4) + a(12) >= -485
 c7(16): - 500 Arc(6,7) + 500 y(6,7) - a(6) + a(7) >= -480
 c7(18): - 500 Arc(6,9) + 500 y(6,9) - a(6) + a(9) >= -489
 c7(28): - 500 Arc(10,4) + 500 y(10,4) + a(4) - a(10) >= -481
 c7(29): - 500 Arc(10,5) + 500 y(10,5) + a(5) - a(10) >= -493
 c7(30): - 500 Arc(10,6) + 500 y(10,6) + a(6) - a(10) >= -474
 c7(34): - 500 Arc(12,7) + 500 y(12,7) + a(7) - a(12) >= -488
 c7(35): - 500 Arc(12,8) + 500 y(12,8) + a(8) - a(12) >= -478
 c7(36): - 500 Arc(12,9) + 500 y(12,9) + a(9) - a(12) >= -473
 c7(37): - 500 Arc(13,4) + 500 y(13,4) + a(4) - a(13) >= -481
 c7(38): - 500 Arc(13,5) + 500 y(13,5) + a(5) - a(13) >= -493
 c7(39): - 500 Arc(13,6) + 500 y(13,6) + a(6) - a(13) >= -474
 c7(43): - 500 Arc(15,7) + 500 y(15,7) + a(7) - a(15) >= -490
 c7(44): - 500 Arc(15,8) + 500 y(15,8) + a(8) - a(15) >= -480
 c7(45): - 500 Arc(15,9) + 500 y(15,9) + a(9) - a(15) >= -475
 c8(3): 500 Arc(1,12) - a(1) + a(12) <= 505
 c8(13): 500 Arc(5,1) + a(1) - a(5) <= 522
 c8(14): 500 Arc(5,2) + a(2) - a(5) <= 512
 c8(15): 500 Arc(5,3) + a(3) - a(5) <= 517
 c8(17): 500 Arc(6,8) - a(6) + a(8) <= 506
 c8(19): 500 Arc(7,1) + a(1) - a(7) <= 507
 c8(20): 500 Arc(7,2) + a(2) - a(7) <= 521
 c8(21): 500 Arc(7,3) + a(3) - a(7) <= 526
 c8(22): 500 Arc(8,13) - a(8) + a(13) <= 516
 c8(23): 500 Arc(8,14) - a(8) + a(14) <= 516
 c8(24): 500 Arc(8,15) - a(8) + a(15) <= 528
 c8(25): 500 Arc(9,13) - a(9) + a(13) <= 511
 c8(26): 500 Arc(9,14) - a(9) + a(14) <= 511
 c8(27): 500 Arc(9,15) - a(9) + a(15) <= 523
 c8(31): 500 Arc(11,13) - a(11) + a(13) <= 520
 c8(32): 500 Arc(11,14) - a(11) + a(14) <= 520
 c8(33): 500 Arc(11,15) - a(11) + a(15) <= 508
 c8(40): 500 Arc(14,1) + a(1) - a(14) <= 505
 c8(41): 500 Arc(14,2) + a(2) - a(14) <= 519
 c8(42): 500 Arc(14,3) + a(3) - a(14) <= 524
 c9(3): - 500 Arc(1,12) - a(1) + a(12) >= -495
 c9(13): - 500 Arc(5,1) + a(1) - a(5) >= -478
 c9(14): - 500 Arc(5,2) + a(2) - a(5) >= -488
 c9(15): - 500 Arc(5,3) + a(3) - a(5) >= -483
 c9(17): - 500 Arc(6,8) - a(6) + a(8) >= -494
 c9(19): - 500 Arc(7,1) + a(1) - a(7) >= -493
 c9(20): - 500 Arc(7,2) + a(2) - a(7) >= -479
 c9(21): - 500 Arc(7,3) + a(3) - a(7) >= -474
 c9(22): - 500 Arc(8,13) - a(8) + a(13) >= -484
 c9(23): - 500 Arc(8,14) - a(8) + a(14) >= -484
 c9(24): - 500 Arc(8,15) - a(8) + a(15) >= -472
 c9(25): - 500 Arc(9,13) - a(9) + a(13) >= -489
 c9(26): - 500 Arc(9,14) - a(9) + a(14) >= -489
 c9(27): - 500 Arc(9,15) - a(9) + a(15) >= -477
 c9(31): - 500 Arc(11,13) - a(11) + a(13) >= -480
 c9(32): - 500 Arc(11,14) - a(11) + a(14) >= -480
 c9(33): - 500 Arc(11,15) - a(11) + a(15) >= -492
 c9(40): - 500 Arc(14,1) + a(1) - a(14) >= -495
 c9(41): - 500 Arc(14,2) + a(2) - a(14) >= -481
 c9(42): - 500 Arc(14,3) + a(3) - a(14) >= -476
 c10(1): Arc(1,10) - y(1,10) >= 0
 c10(2): Arc(1,11) - y(1,11) >= 0
 c10(4): Arc(2,4) - y(2,4) >= 0
 c10(5): Arc(2,5) - y(2,5) >= 0
 c10(6): Arc(2,6) - y(2,6) >= 0
 c10(7): Arc(3,10) - y(3,10) >= 0
 c10(8): Arc(3,11) - y(3,11) >= 0
 c10(9): Arc(3,12) - y(3,12) >= 0
 c10(10): Arc(4,10) - y(4,10) >= 0
 c10(11): Arc(4,11) - y(4,11) >= 0
 c10(12): Arc(4,12) - y(4,12) >= 0
 c10(16): Arc(6,7) - y(6,7) >= 0
 c10(18): Arc(6,9) - y(6,9) >= 0
 c10(28): Arc(10,4) - y(10,4) >= 0
 c10(29): Arc(10,5) - y(10,5) >= 0
 c10(30): Arc(10,6) - y(10,6) >= 0
 c10(34): Arc(12,7) - y(12,7) >= 0
 c10(35): Arc(12,8) - y(12,8) >= 0
 c10(36): Arc(12,9) - y(12,9) >= 0
 c10(37): Arc(13,4) - y(13,4) >= 0
 c10(38): Arc(13,5) - y(13,5) >= 0
 c10(39): Arc(13,6) - y(13,6) >= 0
 c10(43): Arc(15,7) - y(15,7) >= 0
 c10(44): Arc(15,8) - y(15,8) >= 0
 c10(45): Arc(15,9) - y(15,9) >= 0
 c11(1): b(1) <= 40
 c11(2): b(2) <= 40
 c11(3): b(3) <= 40
 c11(4): b(4) <= 40
 c11(5): b(5) <= 40
 c11(6): b(6) <= 40
 c11(7): b(7) <= 40
 c11(8): b(8) <= 40
 c11(9): b(9) <= 40
 c11(10): b(10) <= 40
 c11(11): b(11) <= 40
 c11(12): b(12) <= 40
 c11(13): b(13) <= 40
 c11(14): b(14) <= 40
 c11(15): b(15) <= 40
 c12(1): 500 y(1,10) + b(10) <= 503
 c12(2): 500 y(1,11) + b(11) <= 507
 c12(4): 500 y(2,4) + b(4) <= 506
 c12(5): 500 y(2,5) + b(5) <= 508
 c12(6): 500 y(2,6) + b(6) <= 503
 c12(7): 500 y(3,10) + b(10) <= 503
 c12(8): 500 y(3,11) + b(11) <= 507
 c12(9): 500 y(3,12) + b(12) <= 507
 c12(10): 500 y(4,10) + b(10) <= 503
 c12(11): 500 y(4,11) + b(11) <= 507
 c12(12): 500 y(4,12) + b(12) <= 507
 c12(16): 500 y(6,7) + b(7) <= 504
 c12(18): 500 y(6,9) + b(9) <= 502
 c12(28): 500 y(10,4) + b(4) <= 506
 c12(29): 500 y(10,5) + b(5) <= 508
 c12(30): 500 y(10,6) + b(6) <= 503
 c12(34): 500 y(12,7) + b(7) <= 504
 c12(35): 500 y(12,8) + b(8) <= 502
 c12(36): 500 y(12,9) + b(9) <= 502
 c12(37): 500 y(13,4) + b(4) <= 506
 c12(38): 500 y(13,5) + b(5) <= 508
 c12(39): 500 y(13,6) + b(6) <= 503
 c12(43): 500 y(15,7) + b(7) <= 504
 c12(44): 500 y(15,8) + b(8) <= 502
 c12(45): 500 y(15,9) + b(9) <= 502
 c13(1): - 500 y(1,10) + b(10) >= -497
 c13(2): - 500 y(1,11) + b(11) >= -493
 c13(4): - 500 y(2,4) + b(4) >= -494
 c13(5): - 500 y(2,5) + b(5) >= -492
 c13(6): - 500 y(2,6) + b(6) >= -497
 c13(7): - 500 y(3,10) + b(10) >= -497
 c13(8): - 500 y(3,11) + b(11) >= -493
 c13(9): - 500 y(3,12) + b(12) >= -493
 c13(10): - 500 y(4,10) + b(10) >= -497
 c13(11): - 500 y(4,11) + b(11) >= -493
 c13(12): - 500 y(4,12) + b(12) >= -493
 c13(16): - 500 y(6,7) + b(7) >= -496
 c13(18): - 500 y(6,9) + b(9) >= -498
 c13(28): - 500 y(10,4) + b(4) >= -494
 c13(29): - 500 y(10,5) + b(5) >= -492
 c13(30): - 500 y(10,6) + b(6) >= -497
 c13(34): - 500 y(12,7) + b(7) >= -496
 c13(35): - 500 y(12,8) + b(8) >= -498
 c13(36): - 500 y(12,9) + b(9) >= -498
 c13(37): - 500 y(13,4) + b(4) >= -494
 c13(38): - 500 y(13,5) + b(5) >= -492
 c13(39): - 500 y(13,6) + b(6) >= -497
 c13(43): - 500 y(15,7) + b(7) >= -496
 c13(44): - 500 y(15,8) + b(8) >= -498
 c13(45): - 500 y(15,9) + b(9) >= -498
 c14(1): 500 Arc(1,10) - 500 y(1,10) - b(1) + b(10) <= 503
 c14(2): 500 Arc(1,11) - 500 y(1,11) - b(1) + b(11) <= 507
 c14(4): 500 Arc(2,4) - 500 y(2,4) - b(2) + b(4) <= 506
 c14(5): 500 Arc(2,5) - 500 y(2,5) - b(2) + b(5) <= 508
 c14(6): 500 Arc(2,6) - 500 y(2,6) - b(2) + b(6) <= 503
 c14(7): 500 Arc(3,10) - 500 y(3,10) - b(3) + b(10) <= 503
 c14(8): 500 Arc(3,11) - 500 y(3,11) - b(3) + b(11) <= 507
 c14(9): 500 Arc(3,12) - 500 y(3,12) - b(3) + b(12) <= 507
 c14(10): 500 Arc(4,10) - 500 y(4,10) - b(4) + b(10) <= 503
 c14(11): 500 Arc(4,11) - 500 y(4,11) - b(4) + b(11) <= 507
 c14(12): 500 Arc(4,12) - 500 y(4,12) - b(4) + b(12) <= 507
 c14(16): 500 Arc(6,7) - 500 y(6,7) - b(6) + b(7) <= 504
 c14(18): 500 Arc(6,9) - 500 y(6,9) - b(6) + b(9) <= 502
 c14(28): 500 Arc(10,4) - 500 y(10,4) + b(4) - b(10) <= 506
 c14(29): 500 Arc(10,5) - 500 y(10,5) + b(5) - b(10) <= 508
 c14(30): 500 Arc(10,6) - 500 y(10,6) + b(6) - b(10) <= 503
 c14(34): 500 Arc(12,7) - 500 y(12,7) + b(7) - b(12) <= 504
 c14(35): 500 Arc(12,8) - 500 y(12,8) + b(8) - b(12) <= 502
 c14(36): 500 Arc(12,9) - 500 y(12,9) + b(9) - b(12) <= 502
 c14(37): 500 Arc(13,4) - 500 y(13,4) + b(4) - b(13) <= 506
 c14(38): 500 Arc(13,5) - 500 y(13,5) + b(5) - b(13) <= 508
 c14(39): 500 Arc(13,6) - 500 y(13,6) + b(6) - b(13) <= 503
 c14(43): 500 Arc(15,7) - 500 y(15,7) + b(7) - b(15) <= 504
 c14(44): 500 Arc(15,8) - 500 y(15,8) + b(8) - b(15) <= 502
 c14(45): 500 Arc(15,9) - 500 y(15,9) + b(9) - b(15) <= 502
 c15(1): - 500 Arc(1,10) + 500 y(1,10) - b(1) + b(10) >= -497
 c15(2): - 500 Arc(1,11) + 500 y(1,11) - b(1) + b(11) >= -493
 c15(4): - 500 Arc(2,4) + 500 y(2,4) - b(2) + b(4) >= -494
 c15(5): - 500 Arc(2,5) + 500 y(2,5) - b(2) + b(5) >= -492
 c15(6): - 500 Arc(2,6) + 500 y(2,6) - b(2) + b(6) >= -497
 c15(7): - 500 Arc(3,10) + 500 y(3,10) - b(3) + b(10) >= -497
 c15(8): - 500 Arc(3,11) + 500 y(3,11) - b(3) + b(11) >= -493
 c15(9): - 500 Arc(3,12) + 500 y(3,12) - b(3) + b(12) >= -493
 c15(10): - 500 Arc(4,10) + 500 y(4,10) - b(4) + b(10) >= -497
 c15(11): - 500 Arc(4,11) + 500 y(4,11) - b(4) + b(11) >= -493
 c15(12): - 500 Arc(4,12) + 500 y(4,12) - b(4) + b(12) >= -493
 c15(16): - 500 Arc(6,7) + 500 y(6,7) - b(6) + b(7) >= -496
 c15(18): - 500 Arc(6,9) + 500 y(6,9) - b(6) + b(9) >= -498
 c15(28): - 500 Arc(10,4) + 500 y(10,4) + b(4) - b(10) >= -494
 c15(29): - 500 Arc(10,5) + 500 y(10,5) + b(5) - b(10) >= -492
 c15(30): - 500 Arc(10,6) + 500 y(10,6) + b(6) - b(10) >= -497
 c15(34): - 500 Arc(12,7) + 500 y(12,7) + b(7) - b(12) >= -496
 c15(35): - 500 Arc(12,8) + 500 y(12,8) + b(8) - b(12) >= -498
 c15(36): - 500 Arc(12,9) + 500 y(12,9) + b(9) - b(12) >= -498
 c15(37): - 500 Arc(13,4) + 500 y(13,4) + b(4) - b(13) >= -494
 c15(38): - 500 Arc(13,5) + 500 y(13,5) + b(5) - b(13) >= -492
 c15(39): - 500 Arc(13,6) + 500 y(13,6) + b(6) - b(13) >= -497
 c15(43): - 500 Arc(15,7) + 500 y(15,7) + b(7) - b(15) >= -496
 c15(44): - 500 Arc(15,8) + 500 y(15,8) + b(8) - b(15) >= -498
 c15(45): - 500 Arc(15,9) + 500 y(15,9) + b(9) - b(15) >= -498
 c16(3): 500 Arc(1,12) - b(1) + b(12) <= 507
 c16(13): 500 Arc(5,1) + b(1) - b(5) <= 502
 c16(14): 500 Arc(5,2) + b(2) - b(5) <= 503
 c16(15): 500 Arc(5,3) + b(3) - b(5) <= 503
 c16(17): 500 Arc(6,8) - b(6) + b(8) <= 502
 c16(19): 500 Arc(7,1) + b(1) - b(7) <= 502
 c16(20): 500 Arc(7,2) + b(2) - b(7) <= 503
 c16(21): 500 Arc(7,3) + b(3) - b(7) <= 503
 c16(22): 500 Arc(8,13) - b(8) + b(13) <= 508
 c16(23): 500 Arc(8,14) - b(8) + b(14) <= 504
 c16(24): 500 Arc(8,15) - b(8) + b(15) <= 502
 c16(25): 500 Arc(9,13) - b(9) + b(13) <= 508
 c16(26): 500 Arc(9,14) - b(9) + b(14) <= 504
 c16(27): 500 Arc(9,15) - b(9) + b(15) <= 502
 c16(31): 500 Arc(11,13) - b(11) + b(13) <= 508
 c16(32): 500 Arc(11,14) - b(11) + b(14) <= 504
 c16(33): 500 Arc(11,15) - b(11) + b(15) <= 502
 c16(40): 500 Arc(14,1) + b(1) - b(14) <= 502
 c16(41): 500 Arc(14,2) + b(2) - b(14) <= 503
 c16(42): 500 Arc(14,3) + b(3) - b(14) <= 503
 c17(3): - 500 Arc(1,12) - b(1) + b(12) >= -493
 c17(13): - 500 Arc(5,1) + b(1) - b(5) >= -498
 c17(14): - 500 Arc(5,2) + b(2) - b(5) >= -497
 c17(15): - 500 Arc(5,3) + b(3) - b(5) >= -497
 c17(17): - 500 Arc(6,8) - b(6) + b(8) >= -498
 c17(19): - 500 Arc(7,1) + b(1) - b(7) >= -498
 c17(20): - 500 Arc(7,2) + b(2) - b(7) >= -497
 c17(21): - 500 Arc(7,3) + b(3) - b(7) >= -497
 c17(22): - 500 Arc(8,13) - b(8) + b(13) >= -492
 c17(23): - 500 Arc(8,14) - b(8) + b(14) >= -496
 c17(24): - 500 Arc(8,15) - b(8) + b(15) >= -498
 c17(25): - 500 Arc(9,13) - b(9) + b(13) >= -492
 c17(26): - 500 Arc(9,14) - b(9) + b(14) >= -496
 c17(27): - 500 Arc(9,15) - b(9) + b(15) >= -498
 c17(31): - 500 Arc(11,13) - b(11) + b(13) >= -492
 c17(32): - 500 Arc(11,14) - b(11) + b(14) >= -496
 c17(33): - 500 Arc(11,15) - b(11) + b(15) >= -498
 c17(40): - 500 Arc(14,1) + b(1) - b(14) >= -498
 c17(41): - 500 Arc(14,2) + b(2) - b(14) >= -497
 c17(42): - 500 Arc(14,3) + b(3) - b(14) >= -497
Bounds
Binaries
 Arc(1,10) Arc(1,11) Arc(1,12) Arc(2,4) Arc(2,5) Arc(2,6) Arc(3,10)
 Arc(3,11) Arc(3,12) Arc(4,10) Arc(4,11) Arc(4,12) Arc(5,1) Arc(5,2)
 Arc(5,3) Arc(6,7) Arc(6,8) Arc(6,9) Arc(7,1) Arc(7,2) Arc(7,3) Arc(8,13)
 Arc(8,14) Arc(8,15) Arc(9,13) Arc(9,14) Arc(9,15) Arc(10,4) Arc(10,5)
 Arc(10,6) Arc(11,13) Arc(11,14) Arc(11,15) Arc(12,7) Arc(12,8) Arc(12,9)
 Arc(13,4) Arc(13,5) Arc(13,6) Arc(14,1) Arc(14,2) Arc(14,3) Arc(15,7)
 Arc(15,8) Arc(15,9) y(1,10) y(1,11) y(1,12) y(2,4) y(2,5) y(2,6) y(3,10)
 y(3,11) y(3,12) y(4,10) y(4,11) y(4,12) y(5,1) y(5,2) y(5,3) y(6,7) y(6,8)
 y(6,9) y(7,1) y(7,2) y(7,3) y(8,13) y(8,14) y(8,15) y(9,13) y(9,14)
 y(9,15) y(10,4) y(10,5) y(10,6) y(11,13) y(11,14) y(11,15) y(12,7) y(12,8)
 y(12,9) y(13,4) y(13,5) y(13,6) y(14,1) y(14,2) y(14,3) y(15,7) y(15,8)
 y(15,9)
End
